Route #1: 13 6 96 95 62 82 93 86 44 85 61 100 14 38 37 97 57 42 87 99 15 58 40 
Route #2: 23 74 43 73 54 39 4 80 12 24 78 51 20 70 52 92 60 16 98 48 19 64 10 88 69 31 29 79 76 
Route #3: 94 91 59 17 83 5 2 41 75 89 53 22 56 67 25 28 26 50 3 55 72 9 34 77 68 21 
Route #4: 27 33 81 71 65 35 66 90 7 18 84 46 45 8 36 49 11 63 47 32 30 1 
cost 1534.98
execution_time 21.148
